(declare-rel fail ())
(declare-rel inv2 (Int Int Int Int Int Int))
(declare-var A Int)
(declare-var B Int)
(declare-var C Int)
(declare-var D Int)
(declare-var E Int)
(declare-var F Int)
(declare-var G Int)
(declare-var H Int)
(rule (=> (and (= G B) (= H (- B)) (= D A) (= 1 B) (= 5143523 A)) (inv2 G H D A B A)))
(rule (let ((a!1 (and (inv2 G H D A B A)
                (= E (- (+ G G)))
                (= F (ite (< G 0) (* 4 H) H)))))
  (=> a!1 (inv2 E F D A B A))))
(rule (let ((a!1 (and (inv2 G H D A B A) (> G D) (not (= 0 (+ G H))))))
  (=> a!1 fail)))
(query fail)

